nK = 685;
nT = 4;
nI = 7;
L = 35;
TT = 171;
np = 1;
nc = 3;
b = [68, 68, 41, 58, 62, 37, 54];
d = [114, 115, 71, 124, 98, 114, 127];
m = [1.5, 2.1, 2.5, 2.4, 1.7, 1.3, 2.1];
pt = [0.24, 0.29, 0.23, 0.3];
st = [10.8, 16.53, 13.34, 15];
arc = {<1, 0, 1, 1, 0, 0, 0, [1, 1, 1, 1]>, <2, 1, 2, 1, 0, 0, 0, [1, 1, 1, 1]>, <3, 2, 3, 1, 0, 0, 0, [1, 1, 1, 1]>, <4, 3, 4, 1, 0, 0, 0, [1, 1, 1, 1]>, <5, 4, 5, 1, 0, 0, 0, [1, 1, 1, 1]>, <6, 5, 6, 1, 0, 0, 0, [1, 1, 1, 1]>, <7, 6, 7, 1, 0, 0, 0, [1, 1, 1, 1]>, <8, 7, 8, 1, 0, 0, 0, [1, 1, 1, 1]>, <9, 8, 9, 1, 0, 0, 0, [1, 1, 1, 1]>, <10, 9, 10, 1, 0, 0, 0, [1, 1, 1, 1]>, <11, 10, 11, 1, 0, 0, 0, [1, 1, 1, 1]>, <12, 11, 12, 1, 0, 0, 0, [1, 1, 1, 1]>, <13, 12, 13, 1, 0, 0, 0, [1, 1, 1, 1]>, <14, 13, 14, 1, 0, 0, 0, [1, 1, 1, 1]>, <15, 14, 15, 1, 0, 0, 0, [1, 1, 1, 1]>, <16, 15, 16, 1, 0, 0, 0, [1, 1, 1, 1]>, <17, 16, 17, 1, 0, 0, 0, [1, 1, 1, 1]>, <18, 17, 18, 1, 0, 0, 0, [1, 1, 1, 1]>, <19, 18, 19, 1, 0, 0, 0, [1, 1, 1, 1]>, <20, 19, 20, 1, 0, 0, 0, [1, 1, 1, 1]>, <21, 20, 21, 1, 0, 0, 0, [1, 1, 1, 1]>, <22, 21, 22, 1, 0, 0, 0, [1, 1, 1, 1]>, <23, 22, 23, 1, 0, 0, 0, [1, 1, 1, 1]>, <24, 23, 24, 1, 0, 0, 0, [1, 1, 1, 1]>, <25, 24, 25, 1, 0, 0, 0, [1, 1, 1, 1]>, <26, 25, 26, 1, 0, 0, 0, [1, 1, 1, 1]>, <27, 26, 27, 1, 0, 0, 0, [1, 1, 1, 1]>, <28, 27, 28, 1, 0, 0, 0, [1, 1, 1, 1]>, <29, 28, 29, 1, 0, 0, 0, [1, 1, 1, 1]>, <30, 29, 30, 1, 0, 0, 0, [1, 1, 1, 1]>, <31, 30, 31, 1, 0, 0, 0, [1, 1, 1, 1]>, <32, 31, 32, 1, 0, 0, 0, [1, 1, 1, 1]>, <33, 32, 33, 1, 0, 0, 0, [1, 1, 1, 1]>, <34, 33, 34, 1, 0, 0, 0, [1, 1, 1, 1]>, <35, 34, 35, 1, 0, 0, 0, [1, 1, 1, 1]>, <36, 1, 17, 16, 1, 0, 0, [1, 0, 1, 1]>, <37, 2, 18, 16, 1, 0, 0, [1, 0, 1, 1]>, <38, 3, 19, 16, 1, 0, 0, [1, 0, 1, 1]>, <39, 4, 20, 16, 1, 0, 0, [1, 0, 1, 1]>, <40, 5, 21, 16, 1, 0, 0, [1, 0, 1, 1]>, <41, 6, 22, 16, 1, 0, 0, [1, 0, 1, 1]>, <42, 10, 26, 16, 1, 0, 0, [1, 0, 1, 1]>, <43, 11, 27, 16, 1, 0, 0, [1, 0, 1, 1]>, <44, 12, 28, 16, 1, 0, 0, [1, 0, 1, 1]>, <45, 13, 29, 16, 1, 0, 0, [1, 0, 1, 1]>, <46, 14, 30, 16, 1, 0, 0, [1, 0, 1, 1]>, <47, 15, 31, 16, 1, 0, 0, [1, 0, 1, 1]>, <48, 16, 32, 16, 1, 0, 0, [1, 0, 1, 1]>, <49, 17, 33, 16, 1, 0, 0, [1, 0, 1, 1]>, <50, 18, 34, 16, 1, 0, 0, [1, 0, 1, 1]>, <51, 19, 35, 16, 1, 0, 0, [1, 0, 1, 1]>, <52, 4, 17, 13, 2, 0, 0, [1, 0, 1, 1]>, <53, 5, 18, 13, 2, 0, 0, [1, 0, 1, 1]>, <54, 6, 19, 13, 2, 0, 0, [1, 0, 1, 1]>, <55, 13, 26, 13, 2, 0, 0, [1, 0, 1, 1]>, <56, 14, 27, 13, 2, 0, 0, [1, 0, 1, 1]>, <57, 15, 28, 13, 2, 0, 0, [1, 0, 1, 1]>, <58, 18, 31, 13, 2, 0, 0, [1, 0, 1, 1]>, <59, 19, 32, 13, 2, 0, 0, [1, 0, 1, 1]>, <60, 20, 33, 13, 2, 0, 0, [1, 0, 1, 1]>, <61, 21, 34, 13, 2, 0, 0, [1, 0, 1, 1]>, <62, 22, 35, 13, 2, 0, 0, [1, 0, 1, 1]>, <63, 3, 17, 14, 3, 0, 0, [1, 1, 0, 1]>, <64, 4, 18, 14, 3, 0, 0, [1, 1, 0, 1]>, <65, 5, 19, 14, 3, 0, 0, [1, 1, 0, 1]>, <66, 6, 20, 14, 3, 0, 0, [1, 1, 0, 1]>, <67, 12, 26, 14, 3, 0, 0, [1, 1, 0, 1]>, <68, 13, 27, 14, 3, 0, 0, [1, 1, 0, 1]>, <69, 14, 28, 14, 3, 0, 0, [1, 1, 0, 1]>, <70, 15, 29, 14, 3, 0, 0, [1, 1, 0, 1]>, <71, 17, 31, 14, 3, 0, 0, [1, 1, 0, 1]>, <72, 18, 32, 14, 3, 0, 0, [1, 1, 0, 1]>, <73, 19, 33, 14, 3, 0, 0, [1, 1, 0, 1]>, <74, 20, 34, 14, 3, 0, 0, [1, 1, 0, 1]>, <75, 21, 35, 14, 3, 0, 0, [1, 1, 0, 1]>, <76, 1, 17, 16, 4, 0, 1, [1, 1, 1, 0]>, <77, 2, 18, 16, 4, 0, 1, [1, 1, 1, 0]>, <78, 3, 19, 16, 4, 0, 1, [1, 1, 1, 0]>, <79, 4, 20, 16, 4, 0, 1, [1, 1, 1, 0]>, <80, 5, 21, 16, 4, 0, 1, [1, 1, 1, 0]>, <81, 6, 22, 16, 4, 0, 1, [1, 1, 1, 0]>, <82, 10, 26, 16, 4, 0, 1, [1, 1, 1, 0]>, <83, 11, 27, 16, 4, 0, 1, [1, 1, 1, 0]>, <84, 12, 28, 16, 4, 0, 1, [1, 1, 1, 0]>, <85, 13, 29, 16, 4, 0, 1, [1, 1, 1, 0]>, <86, 14, 30, 16, 4, 0, 1, [1, 1, 1, 0]>, <87, 15, 31, 16, 4, 0, 1, [1, 1, 1, 0]>, <88, 16, 32, 16, 4, 0, 1, [1, 1, 1, 0]>, <89, 17, 33, 16, 4, 0, 1, [1, 1, 1, 0]>, <90, 18, 34, 16, 4, 0, 1, [1, 1, 1, 0]>, <91, 19, 35, 16, 4, 0, 1, [1, 1, 1, 0]>, <92, 2, 17, 15, 5, 0, 0, [1, 0, 1, 1]>, <93, 3, 18, 15, 5, 0, 0, [1, 0, 1, 1]>, <94, 4, 19, 15, 5, 0, 0, [1, 0, 1, 1]>, <95, 5, 20, 15, 5, 0, 0, [1, 0, 1, 1]>, <96, 6, 21, 15, 5, 0, 0, [1, 0, 1, 1]>, <97, 11, 26, 15, 5, 0, 0, [1, 0, 1, 1]>, <98, 12, 27, 15, 5, 0, 0, [1, 0, 1, 1]>, <99, 13, 28, 15, 5, 0, 0, [1, 0, 1, 1]>, <100, 14, 29, 15, 5, 0, 0, [1, 0, 1, 1]>, <101, 15, 30, 15, 5, 0, 0, [1, 0, 1, 1]>, <102, 16, 31, 15, 5, 0, 0, [1, 0, 1, 1]>, <103, 17, 32, 15, 5, 0, 0, [1, 0, 1, 1]>, <104, 18, 33, 15, 5, 0, 0, [1, 0, 1, 1]>, <105, 19, 34, 15, 5, 0, 0, [1, 0, 1, 1]>, <106, 20, 35, 15, 5, 0, 0, [1, 0, 1, 1]>, <107, 2, 17, 15, 6, 0, 0, [0, 1, 1, 1]>, <108, 3, 18, 15, 6, 0, 0, [0, 1, 1, 1]>, <109, 4, 19, 15, 6, 0, 0, [0, 1, 1, 1]>, <110, 5, 20, 15, 6, 0, 0, [0, 1, 1, 1]>, <111, 6, 21, 15, 6, 0, 0, [0, 1, 1, 1]>, <112, 11, 26, 15, 6, 0, 0, [0, 1, 1, 1]>, <113, 12, 27, 15, 6, 0, 0, [0, 1, 1, 1]>, <114, 13, 28, 15, 6, 0, 0, [0, 1, 1, 1]>, <115, 14, 29, 15, 6, 0, 0, [0, 1, 1, 1]>, <116, 15, 30, 15, 6, 0, 0, [0, 1, 1, 1]>, <117, 16, 31, 15, 6, 0, 0, [0, 1, 1, 1]>, <118, 17, 32, 15, 6, 0, 0, [0, 1, 1, 1]>, <119, 18, 33, 15, 6, 0, 0, [0, 1, 1, 1]>, <120, 19, 34, 15, 6, 0, 0, [0, 1, 1, 1]>, <121, 20, 35, 15, 6, 0, 0, [0, 1, 1, 1]>, <122, 2, 17, 15, 7, 0, 1, [1, 1, 0, 1]>, <123, 3, 18, 15, 7, 0, 1, [1, 1, 0, 1]>, <124, 4, 19, 15, 7, 0, 1, [1, 1, 0, 1]>, <125, 5, 20, 15, 7, 0, 1, [1, 1, 0, 1]>, <126, 6, 21, 15, 7, 0, 1, [1, 1, 0, 1]>, <127, 11, 26, 15, 7, 0, 1, [1, 1, 0, 1]>, <128, 12, 27, 15, 7, 0, 1, [1, 1, 0, 1]>, <129, 13, 28, 15, 7, 0, 1, [1, 1, 0, 1]>, <130, 14, 29, 15, 7, 0, 1, [1, 1, 0, 1]>, <131, 15, 30, 15, 7, 0, 1, [1, 1, 0, 1]>, <132, 16, 31, 15, 7, 0, 1, [1, 1, 0, 1]>, <133, 17, 32, 15, 7, 0, 1, [1, 1, 0, 1]>, <134, 18, 33, 15, 7, 0, 1, [1, 1, 0, 1]>, <135, 19, 34, 15, 7, 0, 1, [1, 1, 0, 1]>, <136, 20, 35, 15, 7, 0, 1, [1, 1, 0, 1]>};
